
Gurobi 8.1.0 (linux64, Python) logging started Wed Jan  2 18:17:10 2019

Academic license - for non-commercial use only

Gurobi 7.5.2 (linux64, Python) logging started Wed Jan  2 18:17:23 2019

Academic license - for non-commercial use only

Gurobi 8.1.0 (linux64, Python) logging started Wed Jan  2 19:14:35 2019

Academic license - for non-commercial use only
